GLPSOL--GLPK LP/MIP Solver 5.0
Parameter(s) specified in the command line:
 --lp ../modeles/5_384.lp --log 5_384.log
Reading problem data from '../modeles/5_384.lp'...
1941 rows, 3850 columns, 13455 non-zeros
1920 integer variables, all of which are binary
5802 lines were read
GLPK Integer Optimizer 5.0
1941 rows, 3850 columns, 13455 non-zeros
1920 integer variables, all of which are binary
Preprocessing...
1910 constraint coefficient(s) were reduced
1941 rows, 3845 columns, 13450 non-zeros
1920 integer variables, all of which are binary
Scaling...
 A: min|aij| =  1.085e-04  max|aij| =  4.000e+00  ratio =  3.686e+04
GM: min|aij| =  7.217e-02  max|aij| =  1.386e+01  ratio =  1.920e+02
EQ: min|aij| =  5.208e-03  max|aij| =  1.000e+00  ratio =  1.920e+02
2N: min|aij| =  3.472e-03  max|aij| =  1.753e+00  ratio =  5.050e+02
Constructing initial basis...
Size of triangular part is 1941
Solving LP relaxation...
GLPK Simplex Optimizer 5.0
1941 rows, 3845 columns, 13450 non-zeros
      0: obj =   1.000000000e+01 inf =   2.450e+01 (11)
    114: obj =   4.251319127e-01 inf =   0.000e+00 (0)
*   401: obj =  -2.236029412e+00 inf =   2.305e-15 (0)
OPTIMAL LP SOLUTION FOUND
Integer optimization begins...
Long-step dual simplex will be used
+   401: mip =     not found yet >=              -inf        (1; 0)
+   414: >>>>>  -2.236029412e+00 >=  -2.236029412e+00 < 0.1% (12; 0)
+   414: mip =  -2.236029412e+00 >=     tree is empty   0.0% (0; 23)
INTEGER OPTIMAL SOLUTION FOUND
Time used:   0.1 secs
Memory used: 5.6 Mb (5904117 bytes)
